c Created with the Wolfram Language : www.wolfram.com
c 
p edge 90 198
e 6 7
e 2 12
e 5 15
e 9 15
e 9 17
e 11 17
e 7 18
e 1 19
e 5 19
e 13 19
e 18 20
e 9 21
e 17 22
e 5 24
e 20 24
e 24 25
e 8 26
e 12 27
e 19 28
e 30 31
e 9 32
e 25 32
e 6 33
e 9 33
e 14 33
e 29 33
e 1 34
e 18 34
e 19 34
e 16 35
e 1 36
e 14 36
e 27 36
e 12 37
e 17 37
e 31 37
e 35 37
e 6 38
e 23 38
e 19 39
e 4 40
e 14 40
e 27 40
e 4 41
e 28 41
e 11 42
e 13 42
e 22 42
e 23 42
e 8 43
e 12 43
e 13 43
e 25 43
e 8 44
e 11 44
e 42 45
e 4 46
e 45 46
e 8 47
e 38 47
e 1 48
e 3 48
e 26 48
e 31 48
e 36 48
e 5 49
e 25 49
e 34 49
e 10 50
e 12 50
e 21 50
e 45 50
e 3 51
e 11 52
e 15 52
e 22 52
e 3 53
e 8 53
e 39 54
e 34 55
e 36 55
e 53 55
e 4 56
e 21 56
e 11 57
e 22 57
e 50 57
e 19 58
e 41 58
e 52 58
e 15 59
e 4 60
e 26 60
e 37 60
e 55 60
e 13 61
e 21 61
e 12 62
e 21 62
e 43 62
e 31 64
e 15 65
e 16 65
e 7 66
e 28 66
e 49 66
e 54 66
e 23 67
e 45 67
e 5 68
e 50 68
e 6 69
e 37 69
e 54 69
e 56 69
e 68 69
e 48 70
e 3 71
e 7 71
e 20 71
e 46 71
e 45 72
e 54 73
e 57 73
e 59 73
e 19 74
e 27 74
e 34 74
e 52 74
e 58 74
e 72 74
e 5 75
e 10 75
e 23 75
e 59 75
e 14 76
e 12 77
e 15 77
e 19 77
e 31 77
e 48 77
e 50 77
e 57 77
e 63 77
e 36 78
e 56 78
e 74 78
e 11 79
e 34 79
e 58 79
e 27 80
e 30 80
e 51 80
e 54 80
e 2 81
e 5 81
e 28 81
e 2 82
e 18 82
e 25 82
e 30 82
e 39 82
e 40 82
e 44 82
e 2 83
e 7 83
e 25 83
e 31 83
e 47 83
e 75 83
e 82 83
e 17 84
e 49 84
e 50 84
e 82 84
e 20 85
e 78 85
e 8 86
e 29 86
e 36 86
e 46 86
e 75 86
e 7 87
e 13 87
e 27 87
e 38 87
e 47 87
e 56 87
e 80 88
e 32 89
e 57 89
e 64 89
e 78 89
e 81 89
e 12 90
e 14 90
e 58 90
e 59 90
